 proc title ; proc chmatrix occasions= 4 groups= 1 etype= Closed Nodes= 101 ICMeans NoHist hist= 11
 ; time interval 1 1 1 ;
glabel(1)=Group 1;
 0001 20;
 0010 34;
 0011 5;
 0100 23;
 0110 4;
 1000 58;
 1001 1;
 1010 5;
 1011 2;
 1100 9;
 1110 2;
proc estimate link=Parm-Specific NOLOOP varest=2ndPart    ;
model={ p(~1)c()f0(~1) };
group=1 p    rows=1 cols=4 Square ;
1 1 1 1 ;
group=1 c    rows=1 cols=3 Square ;
1 1 1 ;
group=1 f0    rows=1 cols=1 Square ;
2 ;
design matrix constraints=2 covariates=2 identity;
links=2;
Logit;
Log;
blabel(1)=p:(Intercept);
blabel(2)=f0:(Intercept);
rlabel(1)=p g1 t1;
rlabel(2)=f0 g1 a0 t1;
proc stop;
