 proc title ; proc chmatrix occasions= 4 groups= 1 etype= Closed Nodes= 101 ICMeans NoHist hist= 11
 ; time interval 1 1 1 ;
glabel(1)=Group 1;
 0001 20;
 0010 34;
 0011 5;
 0100 23;
 0110 4;
 1000 58;
 1001 1;
 1010 5;
 1011 2;
 1100 9;
 1110 2;
proc estimate link=Parm-Specific NOLOOP varest=2ndPart    ;
model={ p(~time)c()f0(~1) };
group=1 p    rows=1 cols=4 Square ;
1 2 3 4 ;
group=1 c    rows=1 cols=3 Square ;
2 3 4 ;
group=1 f0    rows=1 cols=1 Square ;
5 ;
design matrix constraints=5 covariates=5;
1 0 0 0 0;
1 1 0 0 0;
1 0 1 0 0;
1 0 0 1 0;
0 0 0 0 1;
links=5;
Logit;
Logit;
Logit;
Logit;
Log;
blabel(1)=p:(Intercept);
blabel(2)=p:time2;
blabel(3)=p:time3;
blabel(4)=p:time4;
blabel(5)=f0:(Intercept);
rlabel(1)=p g1 t1;
rlabel(2)=p g1 t2;
rlabel(3)=p g1 t3;
rlabel(4)=p g1 t4;
rlabel(5)=f0 g1 a0 t1;
proc stop;
