 proc title ; proc chmatrix occasions= 4 groups= 1 etype= HetClosed Nodes= 101 mixtures = 2 ICMeans
 NoHist hist= 11 ; time interval 1 1 1 ;
glabel(1)=Group 1;
 0001 20;
 0010 34;
 0011 5;
 0100 23;
 0110 4;
 1000 58;
 1001 1;
 1010 5;
 1011 2;
 1100 9;
 1110 2;
proc estimate link=Parm-Specific NOLOOP varest=2ndPart    ;
model={ pi(~1)p(~mixture)f0(~1) };
group=1 pi    rows=1 cols=1 Square ;
1 ;
group=1 p    rows=2 cols=1 Square ;
2 ;
3 ;
group=1 f0    rows=1 cols=1 Square ;
4 ;
design matrix constraints=4 covariates=4;
1 0 0 0;
0 1 0 0;
0 1 1 0;
0 0 0 1;
links=4;
Logit;
Logit;
Logit;
Log;
blabel(1)=pi:(Intercept);
blabel(2)=p:(Intercept);
blabel(3)=p:mixture2;
blabel(4)=f0:(Intercept);
rlabel(1)=pi g1 m1;
rlabel(2)=p g1 t1 m1;
rlabel(3)=p g1 t1 m2;
rlabel(4)=f0 g1 a0 t1;
proc stop;
